36 47 19 10 
27 69 30 51 20 
5 83 61 85 37 93 
53 
45 82 8 46 17 
31 88 7 
63 64 49 48 
14 44 38 43 13 
52 18 6 
39 23 67 55 4 25 
65 71 9 66 1 
12 76 78 34 35 77 
59 99 84 60 89 
92 42 15 41 54 24 80 
33 81 3 68 
95 98 16 86 91 100 
21 73 56 74 58 
2 87 57 97 
72 75 22 26 
62 11 90 32 70 
28 29 79 50 
40 94 96 
